K8 Si4 O12                              
   1.00000000000000     
     2.6647414846942277   -5.6595197202338605    0.0000093396068145
     2.6647356030864118    5.6595169101456921   -0.0000104536452082
    -0.0000025971055286   -0.0000215183681611   12.3552824888494417
   K    Si   O 
     8     4    12
Direct
  0.3703782104941730  0.6296225093956154  0.0712055216515594
  0.8703777531947168  0.1296227544930491  0.4287944302636266
  0.1296225148287894  0.8703783243489660  0.5712052584261352
  0.6296224829951048  0.3703785982411857  0.9287948482770734
  0.4435451859672800  0.5564542445485555  0.6346314781574657
  0.5564537964470304  0.4435459247793083  0.3653679915765484
  0.0564534365923956  0.9435457350745617  0.1346316257086943
  0.9435453344486924  0.0564532467561560  0.8653661503455663
  0.7586088161945893  0.2413904627640818  0.6720150166959536
  0.7413922694173656  0.2586060973560180  0.1720140771858455
  0.2413896983852447  0.7586093488273704  0.3279851126017180
  0.2586069177819405  0.7413923594900945  0.8279862296438218
  0.9769402329774812  0.5230606602304212  0.7499998339843050
  0.5230599213581029  0.9769408665746760  0.2500007705218400
  0.0230605104635310  0.4769415108045184  0.2500004754519665
  0.4769409716445475  0.0230615024727344  0.7499997170458289
  0.3972042683899761  0.6027937580349585  0.8547952785737986
  0.6027956677473740  0.3972040953988730  0.1452050385704535
  0.1027941428492465  0.8972044610453265  0.3547959770845655
  0.6697355168509362  0.3302662390364092  0.5714866496920515
  0.1697361068409471  0.8302653341962751  0.9285122781673840
  0.8302665898330545  0.1697323962108110  0.0714888355493746
  0.3302659531621038  0.6697349470338108  0.4285131059945880
  0.8972037011353772  0.1027946228862226  0.6452042988298355
 
  0.00000000E+00  0.00000000E+00  0.00000000E+00
  0.00000000E+00  0.00000000E+00  0.00000000E+00
  0.00000000E+00  0.00000000E+00  0.00000000E+00
  0.00000000E+00  0.00000000E+00  0.00000000E+00
  0.00000000E+00  0.00000000E+00  0.00000000E+00
  0.00000000E+00  0.00000000E+00  0.00000000E+00
  0.00000000E+00  0.00000000E+00  0.00000000E+00
  0.00000000E+00  0.00000000E+00  0.00000000E+00
  0.00000000E+00  0.00000000E+00  0.00000000E+00
  0.00000000E+00  0.00000000E+00  0.00000000E+00
  0.00000000E+00  0.00000000E+00  0.00000000E+00
  0.00000000E+00  0.00000000E+00  0.00000000E+00
  0.00000000E+00  0.00000000E+00  0.00000000E+00
  0.00000000E+00  0.00000000E+00  0.00000000E+00
  0.00000000E+00  0.00000000E+00  0.00000000E+00
  0.00000000E+00  0.00000000E+00  0.00000000E+00
  0.00000000E+00  0.00000000E+00  0.00000000E+00
  0.00000000E+00  0.00000000E+00  0.00000000E+00
  0.00000000E+00  0.00000000E+00  0.00000000E+00
  0.00000000E+00  0.00000000E+00  0.00000000E+00
  0.00000000E+00  0.00000000E+00  0.00000000E+00
  0.00000000E+00  0.00000000E+00  0.00000000E+00
  0.00000000E+00  0.00000000E+00  0.00000000E+00
  0.00000000E+00  0.00000000E+00  0.00000000E+00
