K8 Si4 O12                              
   1.00000000000000     
     2.3033219763055226   -5.0996717321824283    0.0000044761527140
     2.3033203884822933    5.0996710931127360   -0.0000025083359066
     0.0000044136766032   -0.0000064390642509   10.3174148317499981
   K    Si   O 
     8     4    12
Direct
  0.3925918281422711  0.6074080196154761  0.0682076503812926
  0.8925900951913904  0.1074057005031450  0.4317922145898057
  0.1074083687270010  0.8925927130627895  0.5682065122611114
  0.6074067860561029  0.3925907531008818  0.9317936463478548
  0.4718856389290604  0.5281227749707459  0.6361624563991518
  0.5281172444284183  0.4718809676533483  0.3638369165340888
  0.0281203611045197  0.9718843006905727  0.1361633900240376
  0.9718818407021310  0.0281194382377371  0.8638373792452603
  0.7493198485911390  0.2506800513886187  0.6604651225716616
  0.7506772784405925  0.2493217986178271  0.1604747459110364
  0.2506750269825263  0.7493208984685096  0.3395243445902199
  0.2493189762030059  0.7506781849048925  0.8395345878974753
  0.9383185559936376  0.5616796565117497  0.7500001024538356
  0.5616759687120894  0.9383187384893802  0.2500003059019584
  0.0616787847359441  0.4383190707365311  0.2500003487114765
  0.4383197295939770  0.0616789110181652  0.7499996305374560
  0.3996463242559672  0.6003643484819109  0.8414954226211943
  0.6003658346650412  0.3996480177976728  0.1585045096644166
  0.1003630562366295  0.8996436852858360  0.3414955112575734
  0.6800719384133311  0.3199206515230145  0.5263733545532999
  0.1800701020615769  0.8199193701830843  0.9736262963934076
  0.8199229858170058  0.1800678814436019  0.0263671585021494
  0.3199231226410810  0.6800668263509698  0.4736338882818011
  0.8996503033755684  0.1003672409635470  0.6585045043684350
 
  0.00000000E+00  0.00000000E+00  0.00000000E+00
  0.00000000E+00  0.00000000E+00  0.00000000E+00
  0.00000000E+00  0.00000000E+00  0.00000000E+00
  0.00000000E+00  0.00000000E+00  0.00000000E+00
  0.00000000E+00  0.00000000E+00  0.00000000E+00
  0.00000000E+00  0.00000000E+00  0.00000000E+00
  0.00000000E+00  0.00000000E+00  0.00000000E+00
  0.00000000E+00  0.00000000E+00  0.00000000E+00
  0.00000000E+00  0.00000000E+00  0.00000000E+00
  0.00000000E+00  0.00000000E+00  0.00000000E+00
  0.00000000E+00  0.00000000E+00  0.00000000E+00
  0.00000000E+00  0.00000000E+00  0.00000000E+00
  0.00000000E+00  0.00000000E+00  0.00000000E+00
  0.00000000E+00  0.00000000E+00  0.00000000E+00
  0.00000000E+00  0.00000000E+00  0.00000000E+00
  0.00000000E+00  0.00000000E+00  0.00000000E+00
  0.00000000E+00  0.00000000E+00  0.00000000E+00
  0.00000000E+00  0.00000000E+00  0.00000000E+00
  0.00000000E+00  0.00000000E+00  0.00000000E+00
  0.00000000E+00  0.00000000E+00  0.00000000E+00
  0.00000000E+00  0.00000000E+00  0.00000000E+00
  0.00000000E+00  0.00000000E+00  0.00000000E+00
  0.00000000E+00  0.00000000E+00  0.00000000E+00
  0.00000000E+00  0.00000000E+00  0.00000000E+00
