K8 Si4 O12                              
  0.800000000000000     
     2.7507001908112358   -6.4842629601994712    0.0000204244820996
     2.7506986779370850    6.4842629590353758    0.0000236062207489
     0.0000972473835908    0.0000004313692259   11.9736614768598457
   K    Si   O 
     8     4    12
Direct
  0.3996962760429881  0.6003125817760733  0.0716506128326202
  0.8996873814134574  0.1003037256863593  0.4283494730962474
  0.1003094955458508  0.8996931819806093  0.5716506435302051
  0.6003019901514719  0.3996856327104652  0.9283494312463105
  0.4841506835467158  0.5158525962397889  0.6359691779807974
  0.5158519568963769  0.4841501003162563  0.3640308360302171
  0.0158555680606938  0.9841533086052650  0.1359692707967639
  0.9841485720803718  0.0158508220427862  0.8640308951715170
  0.7522059434267163  0.2477883335818021  0.6524509365373206
  0.7477915912239936  0.2522090820024232  0.1524509599488511
  0.2477855694002216  0.7522031857911955  0.3475489721326710
  0.2522009191587458  0.7477831680942941  0.8475488917903604
  0.9397364409832534  0.5602541210918659  0.7500008270464846
  0.5602582122113873  0.9397379089877873  0.2499991591856698
  0.0602571959207907  0.4397387694781258  0.2500008334505495
  0.4397348430856383  0.0602558916754603  0.7499991028282835
  0.3980534010226577  0.6019542237362288  0.8395536707730926
  0.6019560566490227  0.3980549462394762  0.1604464011395521
  0.1019550245339360  0.8980544598679217  0.3395536572374525
  0.6851039390523752  0.3149061563315172  0.5075535064065804
  0.1850981939758327  0.8149004155339554  0.9924463728182928
  0.8149072611480008  0.1851053390670856  0.0075532703084775
  0.3149011818351539  0.6850989750099217  0.4924465553482520
  0.8980523026343405  0.1019530741533288  0.6604465423634167
 
  0.00000000E+00  0.00000000E+00  0.00000000E+00
  0.00000000E+00  0.00000000E+00  0.00000000E+00
  0.00000000E+00  0.00000000E+00  0.00000000E+00
  0.00000000E+00  0.00000000E+00  0.00000000E+00
  0.00000000E+00  0.00000000E+00  0.00000000E+00
  0.00000000E+00  0.00000000E+00  0.00000000E+00
  0.00000000E+00  0.00000000E+00  0.00000000E+00
  0.00000000E+00  0.00000000E+00  0.00000000E+00
  0.00000000E+00  0.00000000E+00  0.00000000E+00
  0.00000000E+00  0.00000000E+00  0.00000000E+00
  0.00000000E+00  0.00000000E+00  0.00000000E+00
  0.00000000E+00  0.00000000E+00  0.00000000E+00
  0.00000000E+00  0.00000000E+00  0.00000000E+00
  0.00000000E+00  0.00000000E+00  0.00000000E+00
  0.00000000E+00  0.00000000E+00  0.00000000E+00
  0.00000000E+00  0.00000000E+00  0.00000000E+00
  0.00000000E+00  0.00000000E+00  0.00000000E+00
  0.00000000E+00  0.00000000E+00  0.00000000E+00
  0.00000000E+00  0.00000000E+00  0.00000000E+00
  0.00000000E+00  0.00000000E+00  0.00000000E+00
  0.00000000E+00  0.00000000E+00  0.00000000E+00
  0.00000000E+00  0.00000000E+00  0.00000000E+00
  0.00000000E+00  0.00000000E+00  0.00000000E+00
  0.00000000E+00  0.00000000E+00  0.00000000E+00
