K8 Si4 O12                              
   1.00000000000000     
     2.5807141969506078   -5.3340277249668384    0.0000015681994696
     2.5807075458593283    5.3340246183462119   -0.0000002490866743
     0.0000027018904705   -0.0000028832823687   11.7605617568385803
   K    Si   O 
     8     4    12
Direct
  0.3759573469249298  0.6240437218380308  0.0698498016664750
  0.8759555935673373  0.1240446350033707  0.4301486407744607
  0.1240453774462059  0.8759559774182455  0.5698518815624798
  0.6240441528291483  0.3759576351711950  0.9301497605366711
  0.4463667656447103  0.5536318750128897  0.6352950151598084
  0.5536325207328681  0.4463671017765692  0.3647056411583336
  0.0536307775267212  0.9463697801726184  0.1352980707378153
  0.9463677414437430  0.0536295349003826  0.8647015554628537
  0.7537359988856179  0.2462654614113613  0.6693167093586724
  0.7462543405844828  0.2537460081179022  0.1693120716377678
  0.2462594544879303  0.7537415151615651  0.3306903181954861
  0.2537398114371801  0.7462621509527776  0.8306781944605192
  0.9623953931345688  0.5376081001851152  0.7500003622741311
  0.5376036022301333  0.9623891403432318  0.2500010650529761
  0.0376107937236742  0.4623958224730811  0.2500009852354728
  0.4623910923322264  0.0376029713611706  0.7500008607283591
  0.4007966033216520  0.5991993526725425  0.8504888983125137
  0.5992077772780386  0.4007910721200127  0.1495134596570250
  0.0992094665754886  0.9007879148794619  0.3504895759760377
  0.6692255681117254  0.3307766372814082  0.5584863629360733
  0.1692226100046558  0.8307802681377032  0.9415181873327657
  0.8307772098021297  0.1692246276810148  0.0584861941819069
  0.3307736377418953  0.6692278058022414  0.4415081849917027
  0.9007963642329153  0.0992008901260807  0.6495082026096856
 
  0.00000000E+00  0.00000000E+00  0.00000000E+00
  0.00000000E+00  0.00000000E+00  0.00000000E+00
  0.00000000E+00  0.00000000E+00  0.00000000E+00
  0.00000000E+00  0.00000000E+00  0.00000000E+00
  0.00000000E+00  0.00000000E+00  0.00000000E+00
  0.00000000E+00  0.00000000E+00  0.00000000E+00
  0.00000000E+00  0.00000000E+00  0.00000000E+00
  0.00000000E+00  0.00000000E+00  0.00000000E+00
  0.00000000E+00  0.00000000E+00  0.00000000E+00
  0.00000000E+00  0.00000000E+00  0.00000000E+00
  0.00000000E+00  0.00000000E+00  0.00000000E+00
  0.00000000E+00  0.00000000E+00  0.00000000E+00
  0.00000000E+00  0.00000000E+00  0.00000000E+00
  0.00000000E+00  0.00000000E+00  0.00000000E+00
  0.00000000E+00  0.00000000E+00  0.00000000E+00
  0.00000000E+00  0.00000000E+00  0.00000000E+00
  0.00000000E+00  0.00000000E+00  0.00000000E+00
  0.00000000E+00  0.00000000E+00  0.00000000E+00
  0.00000000E+00  0.00000000E+00  0.00000000E+00
  0.00000000E+00  0.00000000E+00  0.00000000E+00
  0.00000000E+00  0.00000000E+00  0.00000000E+00
  0.00000000E+00  0.00000000E+00  0.00000000E+00
  0.00000000E+00  0.00000000E+00  0.00000000E+00
  0.00000000E+00  0.00000000E+00  0.00000000E+00
