K8 Si4 O12                              
   1.00000000000000     
     2.3497056298312509   -5.0516654024210830    0.0000013618824378
     2.3497033943404482    5.0516644299859852    0.0000003411088002
     0.0000037712753602   -0.0000005416398622   10.6483151283888251
   K    Si   O 
     8     4    12
Direct
  0.3887752992583771  0.6112254861292712  0.0669481430778944
  0.8887729993289000  0.1112228702642781  0.4330518389724034
  0.1112260629983837  0.8887760558965780  0.5669469401733878
  0.6112244375156095  0.3887740909275621  0.9330531042650492
  0.4648419015959107  0.5351637497435249  0.6373581290766381
  0.5351598136162465  0.4648373980488927  0.3626413492702767
  0.0351642224336999  0.9648416217107467  0.1373585878660037
  0.9648398002617000  0.0351619798990228  0.8626418904030615
  0.7478630716106593  0.2521391539287734  0.6631817162304046
  0.7521363481794694  0.2478636493698332  0.1631848618548943
  0.2521339393102764  0.7478617023512157  0.3368151188698647
  0.2478611749457897  0.7521369263056599  0.8368181889204749
  0.9384845212023407  0.5615156400983281  0.7500001112517864
  0.5615125407731369  0.9384859971703676  0.2499998503569998
  0.0615145986186931  0.4384842332783165  0.2500004013871546
  0.4384856021421299  0.0615153513107387  0.7499996384665977
  0.4002320531650412  0.5997714526765776  0.8429474628807441
  0.5997747989840434  0.4002342560321850  0.1570539011457512
  0.0997694461159000  0.9002286673913318  0.3429460917470948
  0.6762276808393963  0.3237690354136049  0.5338424043607759
  0.1762264667946525  0.8237679911047735  0.9661573598725113
  0.8237699241870118  0.1762250859599988  0.0338419292217651
  0.3237688733267134  0.6762238999964651  0.4661584594967962
  0.9002344227959398  0.0997737049919820  0.6570525208316766
 
  0.00000000E+00  0.00000000E+00  0.00000000E+00
  0.00000000E+00  0.00000000E+00  0.00000000E+00
  0.00000000E+00  0.00000000E+00  0.00000000E+00
  0.00000000E+00  0.00000000E+00  0.00000000E+00
  0.00000000E+00  0.00000000E+00  0.00000000E+00
  0.00000000E+00  0.00000000E+00  0.00000000E+00
  0.00000000E+00  0.00000000E+00  0.00000000E+00
  0.00000000E+00  0.00000000E+00  0.00000000E+00
  0.00000000E+00  0.00000000E+00  0.00000000E+00
  0.00000000E+00  0.00000000E+00  0.00000000E+00
  0.00000000E+00  0.00000000E+00  0.00000000E+00
  0.00000000E+00  0.00000000E+00  0.00000000E+00
  0.00000000E+00  0.00000000E+00  0.00000000E+00
  0.00000000E+00  0.00000000E+00  0.00000000E+00
  0.00000000E+00  0.00000000E+00  0.00000000E+00
  0.00000000E+00  0.00000000E+00  0.00000000E+00
  0.00000000E+00  0.00000000E+00  0.00000000E+00
  0.00000000E+00  0.00000000E+00  0.00000000E+00
  0.00000000E+00  0.00000000E+00  0.00000000E+00
  0.00000000E+00  0.00000000E+00  0.00000000E+00
  0.00000000E+00  0.00000000E+00  0.00000000E+00
  0.00000000E+00  0.00000000E+00  0.00000000E+00
  0.00000000E+00  0.00000000E+00  0.00000000E+00
  0.00000000E+00  0.00000000E+00  0.00000000E+00
