K8 Si4 O12                              
   1.00000000000000     
     2.1739153366959121   -5.2031121023189808    0.0000746976449179
     2.1739171673170516    5.2031128826175195    0.0000729130117285
     0.0003200757412956   -0.0000009398156307    9.3975398947531197
   K    Si   O 
     8     4    12
Direct
  0.4012836909715247  0.5987551559597577  0.0726982236670608
  0.9012379787731888  0.0987094011119609  0.4273017114267077
  0.0987577805107236  0.9012864631844693  0.5726983585972363
  0.5987130210285088  0.4012417327484172  0.9273016674626788
  0.4865902766718904  0.5134381985019516  0.6363722385556301
  0.5134122094558649  0.4865643504724275  0.3636277745243248
  0.0134357953392694  0.9865880361615282  0.1363722311779654
  0.9865677376855402  0.0134155970828260  0.8636277723421912
  0.7528446332980891  0.2471779668614005  0.6500819580476360
  0.7471739974465592  0.2528417396780966  0.1500821662914618
  0.2471432713014536  0.7528111263321193  0.3499176382861862
  0.2528144735746665  0.7471479335248503  0.8499183361573159
  0.9402830616700086  0.5597148355512829  0.7500001402053300
  0.5597102524759094  0.9402809214710999  0.2499998137596222
  0.0597114916970654  0.4402791757482092  0.2500000783024205
  0.4402839617420966  0.0597135164931473  0.7499999552833074
  0.3976073215432976  0.6023897407074017  0.8391537225788852
  0.6024007188875729  0.3976174380850352  0.1608461366114042
  0.1023872649628146  0.8976041197247753  0.3391538440206574
  0.6859032739470834  0.3141338813345271  0.5023963497160437
  0.1858782144759630  0.8141085332144016  0.9976033845471548
  0.8141329162404958  0.1859022502002077  0.0023961156960652
  0.3141071144298238  0.6858761463262866  0.4976041017292872
  0.8976195418706254  0.1024017395238204  0.6608462810134057
 
  0.00000000E+00  0.00000000E+00  0.00000000E+00
  0.00000000E+00  0.00000000E+00  0.00000000E+00
  0.00000000E+00  0.00000000E+00  0.00000000E+00
  0.00000000E+00  0.00000000E+00  0.00000000E+00
  0.00000000E+00  0.00000000E+00  0.00000000E+00
  0.00000000E+00  0.00000000E+00  0.00000000E+00
  0.00000000E+00  0.00000000E+00  0.00000000E+00
  0.00000000E+00  0.00000000E+00  0.00000000E+00
  0.00000000E+00  0.00000000E+00  0.00000000E+00
  0.00000000E+00  0.00000000E+00  0.00000000E+00
  0.00000000E+00  0.00000000E+00  0.00000000E+00
  0.00000000E+00  0.00000000E+00  0.00000000E+00
  0.00000000E+00  0.00000000E+00  0.00000000E+00
  0.00000000E+00  0.00000000E+00  0.00000000E+00
  0.00000000E+00  0.00000000E+00  0.00000000E+00
  0.00000000E+00  0.00000000E+00  0.00000000E+00
  0.00000000E+00  0.00000000E+00  0.00000000E+00
  0.00000000E+00  0.00000000E+00  0.00000000E+00
  0.00000000E+00  0.00000000E+00  0.00000000E+00
  0.00000000E+00  0.00000000E+00  0.00000000E+00
  0.00000000E+00  0.00000000E+00  0.00000000E+00
  0.00000000E+00  0.00000000E+00  0.00000000E+00
  0.00000000E+00  0.00000000E+00  0.00000000E+00
  0.00000000E+00  0.00000000E+00  0.00000000E+00
