K8 Si4 O12                              
   1.00000000000000     
     2.4552220665849687   -5.0492789578853188   -0.0000107077272979
     2.4552277567829344    5.0492818225197240    0.0000099081745529
    -0.0000016823924085    0.0000240453221221   11.2462833994823068
   K    Si   O 
     8     4    12
Direct
  0.3819003244937136  0.6180991426343780  0.0661307610211210
  0.8819006866874588  0.1180995546209402  0.4338696829277850
  0.1180990668691635  0.8819002750044618  0.5661303157332966
  0.6180995593704210  0.3819006772085416  0.9338695252085003
  0.4511959876495197  0.5488039032100218  0.6380749474022878
  0.5488036894744752  0.4511950537414933  0.3619252021787389
  0.0488045169373663  0.9511963103073668  0.1380739583518746
  0.9511959828713614  0.0488056765553821  0.8619258742781213
  0.7466143662486431  0.2533832031517846  0.6670959190596619
  0.7533834880945207  0.2466139822564344  0.1670964094710286
  0.2533828437597734  0.7466149238663249  0.3329049439277512
  0.2466148557979935  0.7533832437754455  0.8329051315118718
  0.9435397206645320  0.5564654685713606  0.7500007397051505
  0.5564598683155353  0.9435334725513584  0.2500007190590026
  0.0564690828300272  0.4435418816867767  0.2500014529688670
  0.4435365995160652  0.0564633049065932  0.7499997817664692
  0.4004486962802289  0.5995537893899510  0.8457894422103749
  0.5995493749647736  0.4004512162942859  0.1542099389565479
  0.0995521830880151  0.9004458668382895  0.3457889443559523
  0.6691821677048537  0.3308177771869794  0.5463933871056526
  0.1691834798615943  0.8308163112074212  0.9536044618519313
  0.8308177502539209  0.1691811830067493  0.0463928724578508
  0.3308166579375040  0.6691838213441130  0.4536044699919728
  0.9004490503285183  0.0995499606835395  0.6542111184981678
 
  0.00000000E+00  0.00000000E+00  0.00000000E+00
  0.00000000E+00  0.00000000E+00  0.00000000E+00
  0.00000000E+00  0.00000000E+00  0.00000000E+00
  0.00000000E+00  0.00000000E+00  0.00000000E+00
  0.00000000E+00  0.00000000E+00  0.00000000E+00
  0.00000000E+00  0.00000000E+00  0.00000000E+00
  0.00000000E+00  0.00000000E+00  0.00000000E+00
  0.00000000E+00  0.00000000E+00  0.00000000E+00
  0.00000000E+00  0.00000000E+00  0.00000000E+00
  0.00000000E+00  0.00000000E+00  0.00000000E+00
  0.00000000E+00  0.00000000E+00  0.00000000E+00
  0.00000000E+00  0.00000000E+00  0.00000000E+00
  0.00000000E+00  0.00000000E+00  0.00000000E+00
  0.00000000E+00  0.00000000E+00  0.00000000E+00
  0.00000000E+00  0.00000000E+00  0.00000000E+00
  0.00000000E+00  0.00000000E+00  0.00000000E+00
  0.00000000E+00  0.00000000E+00  0.00000000E+00
  0.00000000E+00  0.00000000E+00  0.00000000E+00
  0.00000000E+00  0.00000000E+00  0.00000000E+00
  0.00000000E+00  0.00000000E+00  0.00000000E+00
  0.00000000E+00  0.00000000E+00  0.00000000E+00
  0.00000000E+00  0.00000000E+00  0.00000000E+00
  0.00000000E+00  0.00000000E+00  0.00000000E+00
  0.00000000E+00  0.00000000E+00  0.00000000E+00
