K8 Si4 O12                              
   1.00000000000000     
     2.5117213885799510   -5.1570164297674319   -0.0000356960510631
     2.5117114823352229    5.1570117627682999    0.0000365083461353
     0.0000018892753679    0.0000805291810435   11.4690816762364136
   K    Si   O 
     8     4    12
Direct
  0.3794113461159581  0.6205885089023637  0.0674471351983593
  0.8794098334774885  0.1205879415939362  0.4325560100858182
  0.1205891599497463  0.8794119267643853  0.5674445341216199
  0.6205905348258270  0.3794118117091390  0.9325527166407068
  0.4484610039625379  0.5515364658929307  0.6374213663891947
  0.5515370984863661  0.4484627535660534  0.3625780729761374
  0.0515449161696832  0.9484553139268791  0.1374164945393401
  0.9484541837482207  0.0515432872212806  0.8625830552002168
  0.7489999930894042  0.2510037811397136  0.6680041002359728
  0.7510052201983867  0.2489986894851541  0.1680067229951771
  0.2510032410686853  0.7489998956665540  0.3319961084812252
  0.2489992259921598  0.7510046012912699  0.8319933849760217
  0.9508588434669492  0.5491383049649528  0.7499981388184653
  0.5491370324037871  0.9508571617779640  0.2500022650990064
  0.0491384528966530  0.4508582850290226  0.2500009112321583
  0.4508591035635480  0.0491393583075560  0.7499992633946977
  0.4004111039567663  0.5995874230220969  0.8477814255371308
  0.5995890088160246  0.4004124419991220  0.1522181363021044
  0.0995853865731457  0.9004147473440409  0.3477798397458064
  0.6683824835863618  0.3316193449245996  0.5513823503186721
  0.1683837404050726  0.8316187470279874  0.9486126023524676
  0.8316181008639008  0.1683823707105674  0.0513867902385625
  0.3316173066281838  0.6683821215479901  0.4486181224053845
  0.9004136797551360  0.0995847161844409  0.6522204527157541
 
  0.00000000E+00  0.00000000E+00  0.00000000E+00
  0.00000000E+00  0.00000000E+00  0.00000000E+00
  0.00000000E+00  0.00000000E+00  0.00000000E+00
  0.00000000E+00  0.00000000E+00  0.00000000E+00
  0.00000000E+00  0.00000000E+00  0.00000000E+00
  0.00000000E+00  0.00000000E+00  0.00000000E+00
  0.00000000E+00  0.00000000E+00  0.00000000E+00
  0.00000000E+00  0.00000000E+00  0.00000000E+00
  0.00000000E+00  0.00000000E+00  0.00000000E+00
  0.00000000E+00  0.00000000E+00  0.00000000E+00
  0.00000000E+00  0.00000000E+00  0.00000000E+00
  0.00000000E+00  0.00000000E+00  0.00000000E+00
  0.00000000E+00  0.00000000E+00  0.00000000E+00
  0.00000000E+00  0.00000000E+00  0.00000000E+00
  0.00000000E+00  0.00000000E+00  0.00000000E+00
  0.00000000E+00  0.00000000E+00  0.00000000E+00
  0.00000000E+00  0.00000000E+00  0.00000000E+00
  0.00000000E+00  0.00000000E+00  0.00000000E+00
  0.00000000E+00  0.00000000E+00  0.00000000E+00
  0.00000000E+00  0.00000000E+00  0.00000000E+00
  0.00000000E+00  0.00000000E+00  0.00000000E+00
  0.00000000E+00  0.00000000E+00  0.00000000E+00
  0.00000000E+00  0.00000000E+00  0.00000000E+00
  0.00000000E+00  0.00000000E+00  0.00000000E+00
