K8 Si4 O12                              
  0.800000000000000     
     2.7909102958929668   -5.0408603772855871    0.2341711102483371
     2.9673118075916851    5.1281006090184871    0.3649838992408864
     1.4077676125043910    0.0864688498381742   13.5084642792183480
   K    Si   O 
     8     4    12
Direct
  0.4890108015455183  0.7272677585404423  0.0506682138789785
  0.7750488101066395  0.0181470663436016  0.4503388032132847
  0.2248906622841460  0.9816403599321006  0.5496995407579988
  0.5109764550320222  0.2729015716312233  0.9493011759248446
  0.4050172851381859  0.5925078183192625  0.6499591264563804
  0.5949385775839318  0.4073464262499655  0.3500384374036969
  0.0761131433126963  0.8781007528448441  0.1462529018464025
  0.9240088856947679  0.1221283219112905  0.8537552467104135
  0.7478403802445968  0.3183937535709020  0.6614832662580739
  0.8175297413208753  0.2403600895002569  0.1653685896976711
  0.2521290312759916  0.6814538232180283  0.3385363058942872
  0.1824524661838112  0.7597299982823316  0.8346310885118200
  0.9128453058133914  0.5894947543145292  0.7465102280459348
  0.6170213949068923  0.8805027170785422  0.2508936118479568
  0.0871674788924253  0.4104748962722056  0.2534685454904420
  0.3829604202857411  0.1195400472092061  0.7491103581351055
  0.4344439230902992  0.6479499984586070  0.8480508651085970
  0.5656329940833302  0.3522713174548215  0.1519273040440510
  0.1263766762417831  0.9178721385823749  0.3458704420719698
  0.7441435390406852  0.4895081405513082  0.5355813150380513
  0.0028936789952425  0.7503253190582413  0.9595998762792135
  0.9971723702388289  0.2498926880452856  0.0403883783529864
  0.2558327290553706  0.5102422652313265  0.4644212139047283
  0.8735532496328133  0.0819479773993024  0.6541451651271259
 
  0.00000000E+00  0.00000000E+00  0.00000000E+00
  0.00000000E+00  0.00000000E+00  0.00000000E+00
  0.00000000E+00  0.00000000E+00  0.00000000E+00
  0.00000000E+00  0.00000000E+00  0.00000000E+00
  0.00000000E+00  0.00000000E+00  0.00000000E+00
  0.00000000E+00  0.00000000E+00  0.00000000E+00
  0.00000000E+00  0.00000000E+00  0.00000000E+00
  0.00000000E+00  0.00000000E+00  0.00000000E+00
  0.00000000E+00  0.00000000E+00  0.00000000E+00
  0.00000000E+00  0.00000000E+00  0.00000000E+00
  0.00000000E+00  0.00000000E+00  0.00000000E+00
  0.00000000E+00  0.00000000E+00  0.00000000E+00
  0.00000000E+00  0.00000000E+00  0.00000000E+00
  0.00000000E+00  0.00000000E+00  0.00000000E+00
  0.00000000E+00  0.00000000E+00  0.00000000E+00
  0.00000000E+00  0.00000000E+00  0.00000000E+00
  0.00000000E+00  0.00000000E+00  0.00000000E+00
  0.00000000E+00  0.00000000E+00  0.00000000E+00
  0.00000000E+00  0.00000000E+00  0.00000000E+00
  0.00000000E+00  0.00000000E+00  0.00000000E+00
  0.00000000E+00  0.00000000E+00  0.00000000E+00
  0.00000000E+00  0.00000000E+00  0.00000000E+00
  0.00000000E+00  0.00000000E+00  0.00000000E+00
  0.00000000E+00  0.00000000E+00  0.00000000E+00
