K8 Si4 O12                              
   1.00000000000000     
     2.4034631821502486   -5.0082568590340371   -0.0000079448372547
     2.4034707661523140    5.0082606545484785    0.0000053678421510
    -0.0000057730762897    0.0000162025846864   10.9990849639265953
   K    Si   O 
     8     4    12
Direct
  0.3846889910681779  0.6153095747932609  0.0659983970219980
  0.8846892168324787  0.1153098661431409  0.4340019108528629
  0.1153085649210810  0.8846881454933201  0.5659978385094511
  0.6153107749609769  0.3846901117807345  0.9340014475674469
  0.4561552120207378  0.5438458037071531  0.6384576077227383
  0.5438458810089751  0.4561550394753828  0.3615421436637493
  0.0438466474470939  0.9561541560313553  0.1384570284181285
  0.9561570086471148  0.0438493769281661  0.8615430723994457
  0.7462176450864740  0.2537820505157791  0.6656344258862037
  0.7537831751969027  0.2462171589506058  0.1656373871515026
  0.2537829964036030  0.7462172205963211  0.3343660343948729
  0.2462186871499588  0.7537833357034424  0.8343672661981221
  0.9395442504773818  0.5604502436212476  0.7499988015885464
  0.5604546919821041  0.9395478877477883  0.2499993850523567
  0.0604510833218333  0.4395428775090671  0.2499988899285178
  0.4395479522539634  0.0604553409148581  0.7499993903947326
  0.4005242121940277  0.5994808722419540  0.8445916080590963
  0.5994775441902616  0.4005235797376303  0.1554073320787590
  0.0994764767778352  0.9005229561435948  0.3445917997889121
  0.6714514994903813  0.3285454970160941  0.5412106394101520
  0.1714538638765498  0.8285460407312951  0.9587882977298167
  0.8285456622240931  0.1714519822787668  0.0412090186976970
  0.3285463186392554  0.6714529416738548  0.4587911750081517
  0.9005216438287171  0.0994779402651805  0.6554091024767185
 
  0.00000000E+00  0.00000000E+00  0.00000000E+00
  0.00000000E+00  0.00000000E+00  0.00000000E+00
  0.00000000E+00  0.00000000E+00  0.00000000E+00
  0.00000000E+00  0.00000000E+00  0.00000000E+00
  0.00000000E+00  0.00000000E+00  0.00000000E+00
  0.00000000E+00  0.00000000E+00  0.00000000E+00
  0.00000000E+00  0.00000000E+00  0.00000000E+00
  0.00000000E+00  0.00000000E+00  0.00000000E+00
  0.00000000E+00  0.00000000E+00  0.00000000E+00
  0.00000000E+00  0.00000000E+00  0.00000000E+00
  0.00000000E+00  0.00000000E+00  0.00000000E+00
  0.00000000E+00  0.00000000E+00  0.00000000E+00
  0.00000000E+00  0.00000000E+00  0.00000000E+00
  0.00000000E+00  0.00000000E+00  0.00000000E+00
  0.00000000E+00  0.00000000E+00  0.00000000E+00
  0.00000000E+00  0.00000000E+00  0.00000000E+00
  0.00000000E+00  0.00000000E+00  0.00000000E+00
  0.00000000E+00  0.00000000E+00  0.00000000E+00
  0.00000000E+00  0.00000000E+00  0.00000000E+00
  0.00000000E+00  0.00000000E+00  0.00000000E+00
  0.00000000E+00  0.00000000E+00  0.00000000E+00
  0.00000000E+00  0.00000000E+00  0.00000000E+00
  0.00000000E+00  0.00000000E+00  0.00000000E+00
  0.00000000E+00  0.00000000E+00  0.00000000E+00
