Dipotassium closo-nonaoxotetrasilicate  
   1.00000000000000     
     6.6013538480877925    0.0000492715277967   -0.0000010429952051
    -3.3007260496011579    5.7169354969593815   -0.0000003580585802
    -0.0000015088238565   -0.0000014718018739    9.5234495385687765
   K    Si   O 
     4     8    18
Direct
  0.3333562266791765  0.6666802358873897  0.0576177091691132
  0.6666439232507647  0.3333205893899289  0.9423820621337946
  0.6666441774250631  0.3333206822105388  0.5576172212898319
  0.3333562310928971  0.6666806965629887  0.4423827246887177
 -0.0000003515967883 -0.0000002271399655 -0.0000000873604525
  0.0000001839716672  0.0000000908633201  0.5000003275585846
  0.3649494284686253  0.2344686122535724  0.2500050890829150
  0.6350488177782037  0.7655309235523640  0.7499947501461439
  0.7655308485893086  0.1304799095103332  0.2500050599173532
  0.2344702438763831  0.8695181735547434  0.7499947292265748
  0.8695217987814119  0.6350501294383258  0.2500055234504829
  0.1304796526897717  0.3649518784532833  0.7499945652547596
  0.4905833507392592  0.0732311674480514  0.2500001743627763
  0.5094171025701140  0.9267690326683358  0.7500001918361708
  0.9267703435230050  0.4173562384205312  0.2499995534733713
  0.0732303271405254  0.5826446324843823  0.7500001425392711
  0.5826473248928026  0.5094152835371958  0.2499997791594750
  0.4173518168452801  0.4905844092417517  0.7500001670608941
  0.2313785021695182  0.2103811571920165  0.1061136872114463
  0.7686211859099092  0.7896180850621349  0.8938871971873801
  0.7896164315379678  0.0209983409676137  0.1061133811674358
  0.2103821589750349  0.9790020384475229  0.8938869816791122
  0.9790021491452724  0.7686223204978585  0.1061140920599200
  0.0209967559666297  0.2313764496449938  0.8938865458894032
  0.7686158270794724  0.7896154674245267  0.6061177901892889
  0.2313850698216646  0.2103849162121835  0.3938819337910588
  0.2103854527575201  0.9789992705347754  0.6061185918861267
  0.7896151103284162  0.0210010368045247  0.3938804637221592
  0.0209994017713215  0.2313820288019923  0.6061190918332712
  0.9790003808198174  0.7686163630728213  0.3938805393936153
 
  0.00000000E+00  0.00000000E+00  0.00000000E+00
  0.00000000E+00  0.00000000E+00  0.00000000E+00
  0.00000000E+00  0.00000000E+00  0.00000000E+00
  0.00000000E+00  0.00000000E+00  0.00000000E+00
  0.00000000E+00  0.00000000E+00  0.00000000E+00
  0.00000000E+00  0.00000000E+00  0.00000000E+00
  0.00000000E+00  0.00000000E+00  0.00000000E+00
  0.00000000E+00  0.00000000E+00  0.00000000E+00
  0.00000000E+00  0.00000000E+00  0.00000000E+00
  0.00000000E+00  0.00000000E+00  0.00000000E+00
  0.00000000E+00  0.00000000E+00  0.00000000E+00
  0.00000000E+00  0.00000000E+00  0.00000000E+00
  0.00000000E+00  0.00000000E+00  0.00000000E+00
  0.00000000E+00  0.00000000E+00  0.00000000E+00
  0.00000000E+00  0.00000000E+00  0.00000000E+00
  0.00000000E+00  0.00000000E+00  0.00000000E+00
  0.00000000E+00  0.00000000E+00  0.00000000E+00
  0.00000000E+00  0.00000000E+00  0.00000000E+00
  0.00000000E+00  0.00000000E+00  0.00000000E+00
  0.00000000E+00  0.00000000E+00  0.00000000E+00
  0.00000000E+00  0.00000000E+00  0.00000000E+00
  0.00000000E+00  0.00000000E+00  0.00000000E+00
  0.00000000E+00  0.00000000E+00  0.00000000E+00
  0.00000000E+00  0.00000000E+00  0.00000000E+00
  0.00000000E+00  0.00000000E+00  0.00000000E+00
  0.00000000E+00  0.00000000E+00  0.00000000E+00
  0.00000000E+00  0.00000000E+00  0.00000000E+00
  0.00000000E+00  0.00000000E+00  0.00000000E+00
  0.00000000E+00  0.00000000E+00  0.00000000E+00
  0.00000000E+00  0.00000000E+00  0.00000000E+00
