Dipotassium closo-nonaoxotetrasilicate  
   1.00000000000000     
     5.8376845898321186    0.0000729409651454    0.0000001654958995
    -2.9189009209404468    5.0555465628462839   -0.0000032776687353
     0.0000002045685724   -0.0000053484693399    9.0468098628142215
   K    Si   O 
     4     8    18
Direct
  0.3333335129922705  0.6666662061479552  0.0199959140552695
  0.6666662378017703  0.3333332721536927  0.9800036943998850
  0.6666661070349585  0.3333325204027901  0.5199949780928582
  0.3333336730291649  0.6666678825711767  0.4800053700435283
  0.0000000627592236 -0.0000000223437630  0.0000002311808486
  0.0000000653758442  0.0000002226808924  0.4999995905964617
  0.3543981408322163  0.2605311651075417  0.2499976578640308
  0.6456017539286008  0.7394693400897980  0.7500023340120734
  0.7394661150167016  0.0938644621912319  0.2499975181474999
  0.2605336225187247  0.9061351158638054  0.7500026895626053
  0.9061335488661756  0.6456001209534278  0.2499977474392175
  0.0938666129454652  0.3543999139113881  0.7500021570768844
  0.4487460833609628  0.0488929322747493  0.2500002064987557
  0.5512536617283080  0.9511066381339567  0.7500000181472862
  0.9511038249865127  0.3998509426974960  0.2500001786102761
  0.0488966685167894  0.6001494102392743  0.7500003534854126
  0.6001475925330094  0.5512504825360509  0.2499996952654954
  0.3998519610826569  0.4487495230210039  0.7500001257616095
  0.2208626471455008  0.2509866497113039  0.1026238948708742
  0.7791370079792057  0.7490125886603930  0.8973761016233741
  0.7490110879662996  0.9698750685126902  0.1026226581043163
  0.2509889052705877  0.0301253270490348  0.8973772870057247
  0.0301235437830291  0.7791353370312978  0.1026231653990479
  0.9698766810628459  0.2208641811078397  0.8973764907013924
  0.7791367069562487  0.7490129336768200  0.6026252374594339
  0.2208635805528474  0.2509871595636310  0.3973750145472897
  0.2509882174375412  0.0301248006293076  0.6026249055899943
  0.7490123238406986  0.9698751723757519  0.3973751015187063
  0.9698762688929276  0.2208652239015483  0.6026243211301736
  0.0301236568029698  0.7791353621479478  0.3973753408096620
 
  0.00000000E+00  0.00000000E+00  0.00000000E+00
  0.00000000E+00  0.00000000E+00  0.00000000E+00
  0.00000000E+00  0.00000000E+00  0.00000000E+00
  0.00000000E+00  0.00000000E+00  0.00000000E+00
  0.00000000E+00  0.00000000E+00  0.00000000E+00
  0.00000000E+00  0.00000000E+00  0.00000000E+00
  0.00000000E+00  0.00000000E+00  0.00000000E+00
  0.00000000E+00  0.00000000E+00  0.00000000E+00
  0.00000000E+00  0.00000000E+00  0.00000000E+00
  0.00000000E+00  0.00000000E+00  0.00000000E+00
  0.00000000E+00  0.00000000E+00  0.00000000E+00
  0.00000000E+00  0.00000000E+00  0.00000000E+00
  0.00000000E+00  0.00000000E+00  0.00000000E+00
  0.00000000E+00  0.00000000E+00  0.00000000E+00
  0.00000000E+00  0.00000000E+00  0.00000000E+00
  0.00000000E+00  0.00000000E+00  0.00000000E+00
  0.00000000E+00  0.00000000E+00  0.00000000E+00
  0.00000000E+00  0.00000000E+00  0.00000000E+00
  0.00000000E+00  0.00000000E+00  0.00000000E+00
  0.00000000E+00  0.00000000E+00  0.00000000E+00
  0.00000000E+00  0.00000000E+00  0.00000000E+00
  0.00000000E+00  0.00000000E+00  0.00000000E+00
  0.00000000E+00  0.00000000E+00  0.00000000E+00
  0.00000000E+00  0.00000000E+00  0.00000000E+00
  0.00000000E+00  0.00000000E+00  0.00000000E+00
  0.00000000E+00  0.00000000E+00  0.00000000E+00
  0.00000000E+00  0.00000000E+00  0.00000000E+00
  0.00000000E+00  0.00000000E+00  0.00000000E+00
  0.00000000E+00  0.00000000E+00  0.00000000E+00
  0.00000000E+00  0.00000000E+00  0.00000000E+00
